1029012
0 7 23751
7 14 26227
14 15 36816
15 16 43849
16 13 42391
13 2 30026
2 8 153162
8 5 47658
5 33 56284
33 38 31546
38 24 4093
24 30 7859
30 29 10287
29 36 941
36 25 14546
25 32 15458
32 11 3967
11 31 37145
31 4 3290
4 19 27357
19 27 26675
27 12 6411
12 37 18675
37 28 745
28 22 8154
22 35 25045
35 6 11794
6 20 17005
20 9 5744
9 10 5506
10 34 5412
34 1 10541
1 26 15288
26 17 12606
17 39 18404
39 18 13572
18 3 26533
3 21 23621
21 23 45980
23 0 114648
